//Dat File

outFile="MPVSBPP_SET1_IT200_ITV1_NT1_TS3_WT1_VT1_REP3";
m=200;
o=32;
p=3;
numVTypes=1;

demand = [2, 6, 4, 10, 10, 2, 9, 3, 3, 3, 5, 3, 10, 5, 4, 10, 1, 1, 7, 7, 6, 11, 4, 6, 8, 1, 7, 1, 3, 7, 8, 4, 8, 1, 6, 4, 6, 3, 5, 1, 3, 2, 4, 9, 1, 5, 6, 4, 8, 1, 5, 2, 10, 6, 7, 11, 6, 2, 7, 4, 11, 3, 9, 7, 1, 5, 6, 5, 11, 2, 11, 3, 10, 3, 1, 3, 1, 2, 11, 7, 9, 7, 6, 11, 3, 3, 6, 6, 5, 11, 4, 1, 5, 9, 7, 7, 2, 4, 1, 5, 10, 9, 4, 11, 2, 2, 2, 10, 7, 9, 1, 5, 11, 11, 7, 3, 9, 10, 4, 4, 7, 4, 11, 8, 5, 6, 4, 8, 3, 10, 8, 3, 6, 9, 11, 1, 6, 6, 2, 11, 7, 8, 6, 9, 8, 8, 11, 8, 1, 9, 18, 17, 15, 13, 18, 18, 15, 14, 14, 19, 17, 12, 18, 14, 12, 14, 13, 12, 17, 16, 15, 14, 18, 12, 14, 17, 13, 18, 14, 16, 15, 19, 19, 14, 13, 18, 19, 18, 16, 17, 17, 13, 16, 14, 18, 16, 13, 13, 16, 14];
Depot_Cap = [30000, 30000, 30000];
Tarif = [10, 3, 7];
VeicVolume = [100];
VeicCost = [100];
VeicType = [1, 1, 1, 1, 1, 1, 1, 1, 1, 1, 1, 1, 1, 1, 1, 1, 1, 1, 1, 1, 1, 1, 1, 1, 1, 1, 1, 1, 1, 1, 1, 1];
Elect_vehicle = [[70, 100, 30], [70, 100, 30], [70, 100, 30], [70, 100, 30], [70, 100, 30], [70, 100, 30], [70, 100, 30], [70, 100, 30], [70, 100, 30], [70, 100, 30], [70, 100, 30], [70, 100, 30], [70, 100, 30], [70, 100, 30], [70, 100, 30], [70, 100, 30], [70, 100, 30], [70, 100, 30], [70, 100, 30], [70, 100, 30], [70, 100, 30], [70, 100, 30], [70, 100, 30], [70, 100, 30], [70, 100, 30], [70, 100, 30], [70, 100, 30], [70, 100, 30], [70, 100, 30], [70, 100, 30], [70, 100, 30], [70, 100, 30]];